kpoints-point only
 0
Monkhurst-Pack
 5 5 1
 0 0 0