                                        
   1.00000000000000     
    20.1946972898788779   -0.0000000000277519    0.0000000000000000
   -10.0973486449154120   17.4891208747973081    0.0000000000000000
     0.0000000000000000    0.0000000000000000   14.8401829923148743
   Cu   N    C    H 
     2     6    48    24
Direct
  0.6666666870000029  0.3333333429999996  0.5000000000000000
  0.3333333129999971  0.6666666570000004  0.5000000000000000
  0.3859077579013092  0.6132464966857031  0.5000000000000000
  0.3867535033143040  0.7726612612156061  0.5000000000000000
  0.2273387387843939  0.6140922420986908  0.5000000000000000
  0.6140922420986908  0.3867535033143040  0.5000000000000000
  0.6132464966857031  0.2273387387843939  0.5000000000000000
  0.7726612612156061  0.3859077579013092  0.5000000000000000
  0.4195216357519312  0.5796762906599677  0.5000000000000000
  0.4203237093400323  0.8398453450919563  0.5000000000000000
  0.1601546549080436  0.5804783642480688  0.5000000000000000
  0.5804783642480688  0.4203237093400323  0.5000000000000000
  0.5796762906599677  0.1601546549080436  0.5000000000000000
  0.8398453450919563  0.4195216357519312  0.5000000000000000
  0.4595311550691202  0.5400173919526778  0.5000000000000000
  0.4599826080473222  0.9195137631164282  0.5000000000000000
  0.0804862368835718  0.5404688449308869  0.5000000000000000
  0.5404688449308869  0.4599826080473222  0.5000000000000000
  0.5400173919526778  0.0804862368835718  0.5000000000000000
  0.9195137631164282  0.4595311550691202  0.5000000000000000
  0.5415757007772426  0.5827540359260402  0.5000000000000000
  0.4172459640739669  0.9588216648512095  0.5000000000000000
  0.0411783351487905  0.4584242992227574  0.5000000000000000
  0.4584242992227574  0.4172459640739669  0.5000000000000000
  0.5827540359260402  0.0411783351487905  0.5000000000000000
  0.9588216648512095  0.5415757007772426  0.5000000000000000
  0.4172457964036642  0.4579677515726121  0.5000000000000000
  0.5420322484273880  0.9592780448310593  0.5000000000000000
  0.0407219551689408  0.5827542035963429  0.5000000000000000
  0.5827542035963429  0.5420322484273880  0.5000000000000000
  0.4579677515726121  0.0407219551689408  0.5000000000000000
  0.9592780448310593  0.4172457964036642  0.5000000000000000
  0.6624002240514869  0.7034306036355414  0.5000000000000000
  0.2965693963644586  0.9589696204159599  0.5000000000000000
  0.0410303795840401  0.3375997759485059  0.5000000000000000
  0.3375997759485059  0.2965693963644586  0.5000000000000000
  0.7034306036355414  0.0410303795840401  0.5000000000000000
  0.9589696204159599  0.6624002240514869  0.5000000000000000
  0.2970211524093948  0.3366968645581565  0.5000000000000000
  0.6633031354418435  0.9603242878512525  0.5000000000000000
  0.0396757121487404  0.7029788475905981  0.5000000000000000
  0.7029788475905981  0.6633031354418435  0.5000000000000000
  0.3366968645581565  0.0396757121487404  0.5000000000000000
  0.9603242878512525  0.2970211524093948  0.5000000000000000
  0.3361630665805099  0.4157220976209671  0.5000000000000000
  0.5842779023790400  0.9204409689595358  0.5000000000000000
  0.0795590310404714  0.6638369334194972  0.5000000000000000
  0.6638369334194972  0.5842779023790400  0.5000000000000000
  0.4157220976209671  0.0795590310404714  0.5000000000000000
  0.9204409689595358  0.3361630665805099  0.5000000000000000
  0.5833744669951783  0.6638480475716916  0.5000000000000000
  0.3361519524283085  0.9195264194234940  0.5000000000000000
  0.0804735805765132  0.4166255330048146  0.5000000000000000
  0.4166255330048146  0.3361519524283085  0.5000000000000000
  0.6638480475716916  0.0804735805765132  0.5000000000000000
  0.9195264194234940  0.5833744669951783  0.5000000000000000
  0.5520908507345778  0.6949633415763121  0.5000000000000000
  0.3050366584236879  0.8571275091582656  0.5000000000000000
  0.1428724908417343  0.4479091492654222  0.5000000000000000
  0.4479091492654222  0.3050366584236879  0.5000000000000000
  0.6949633415763121  0.1428724908417343  0.5000000000000000
  0.8571275091582656  0.5520908507345778  0.5000000000000000
  0.3047025915317078  0.4466608288902983  0.5000000000000000
  0.5533391711097017  0.8580417626414023  0.5000000000000000
  0.1419582373585905  0.6952974084682921  0.5000000000000000
  0.6952974084682921  0.5533391711097017  0.5000000000000000
  0.4466608288902983  0.1419582373585905  0.5000000000000000
  0.8580417626414023  0.3047025915317078  0.5000000000000000
  0.2346485157799479  0.3052713359025994  0.5000000000000000
  0.6947286640974076  0.9293771788773518  0.5000000000000000
  0.0706228211226552  0.7653514842200664  0.5000000000000000
  0.7653514842200664  0.6947286640974076  0.5000000000000000
  0.3052713359025994  0.0706228211226552  0.5000000000000000
  0.9293771788773518  0.2346485157799479  0.5000000000000000
  0.6934745612683877  0.7658039580672829  0.5000000000000000
  0.2341960419327171  0.9276706022011082  0.5000000000000000
  0.0723293977988917  0.3065254387316124  0.5000000000000000
  0.3065254387316124  0.2341960419327171  0.5000000000000000
  0.7658039580672829  0.0723293977988917  0.5000000000000000
  0.9276706022011082  0.6934745612683877  0.5000000000000000
 
  0.00000000E+00  0.00000000E+00  0.00000000E+00
  0.00000000E+00  0.00000000E+00  0.00000000E+00
  0.00000000E+00  0.00000000E+00  0.00000000E+00
  0.00000000E+00  0.00000000E+00  0.00000000E+00
  0.00000000E+00  0.00000000E+00  0.00000000E+00
  0.00000000E+00  0.00000000E+00  0.00000000E+00
  0.00000000E+00  0.00000000E+00  0.00000000E+00
  0.00000000E+00  0.00000000E+00  0.00000000E+00
  0.00000000E+00  0.00000000E+00  0.00000000E+00
  0.00000000E+00  0.00000000E+00  0.00000000E+00
  0.00000000E+00  0.00000000E+00  0.00000000E+00
  0.00000000E+00  0.00000000E+00  0.00000000E+00
  0.00000000E+00  0.00000000E+00  0.00000000E+00
  0.00000000E+00  0.00000000E+00  0.00000000E+00
  0.00000000E+00  0.00000000E+00  0.00000000E+00
  0.00000000E+00  0.00000000E+00  0.00000000E+00
  0.00000000E+00  0.00000000E+00  0.00000000E+00
  0.00000000E+00  0.00000000E+00  0.00000000E+00
  0.00000000E+00  0.00000000E+00  0.00000000E+00
  0.00000000E+00  0.00000000E+00  0.00000000E+00
  0.00000000E+00  0.00000000E+00  0.00000000E+00
  0.00000000E+00  0.00000000E+00  0.00000000E+00
  0.00000000E+00  0.00000000E+00  0.00000000E+00
  0.00000000E+00  0.00000000E+00  0.00000000E+00
  0.00000000E+00  0.00000000E+00  0.00000000E+00
  0.00000000E+00  0.00000000E+00  0.00000000E+00
  0.00000000E+00  0.00000000E+00  0.00000000E+00
  0.00000000E+00  0.00000000E+00  0.00000000E+00
  0.00000000E+00  0.00000000E+00  0.00000000E+00
  0.00000000E+00  0.00000000E+00  0.00000000E+00
  0.00000000E+00  0.00000000E+00  0.00000000E+00
  0.00000000E+00  0.00000000E+00  0.00000000E+00
  0.00000000E+00  0.00000000E+00  0.00000000E+00
  0.00000000E+00  0.00000000E+00  0.00000000E+00
  0.00000000E+00  0.00000000E+00  0.00000000E+00
  0.00000000E+00  0.00000000E+00  0.00000000E+00
  0.00000000E+00  0.00000000E+00  0.00000000E+00
  0.00000000E+00  0.00000000E+00  0.00000000E+00
  0.00000000E+00  0.00000000E+00  0.00000000E+00
  0.00000000E+00  0.00000000E+00  0.00000000E+00
  0.00000000E+00  0.00000000E+00  0.00000000E+00
  0.00000000E+00  0.00000000E+00  0.00000000E+00
  0.00000000E+00  0.00000000E+00  0.00000000E+00
  0.00000000E+00  0.00000000E+00  0.00000000E+00
  0.00000000E+00  0.00000000E+00  0.00000000E+00
  0.00000000E+00  0.00000000E+00  0.00000000E+00
  0.00000000E+00  0.00000000E+00  0.00000000E+00
  0.00000000E+00  0.00000000E+00  0.00000000E+00
  0.00000000E+00  0.00000000E+00  0.00000000E+00
  0.00000000E+00  0.00000000E+00  0.00000000E+00
  0.00000000E+00  0.00000000E+00  0.00000000E+00
  0.00000000E+00  0.00000000E+00  0.00000000E+00
  0.00000000E+00  0.00000000E+00  0.00000000E+00
  0.00000000E+00  0.00000000E+00  0.00000000E+00
  0.00000000E+00  0.00000000E+00  0.00000000E+00
  0.00000000E+00  0.00000000E+00  0.00000000E+00
  0.00000000E+00  0.00000000E+00  0.00000000E+00
  0.00000000E+00  0.00000000E+00  0.00000000E+00
  0.00000000E+00  0.00000000E+00  0.00000000E+00
  0.00000000E+00  0.00000000E+00  0.00000000E+00
  0.00000000E+00  0.00000000E+00  0.00000000E+00
  0.00000000E+00  0.00000000E+00  0.00000000E+00
  0.00000000E+00  0.00000000E+00  0.00000000E+00
  0.00000000E+00  0.00000000E+00  0.00000000E+00
  0.00000000E+00  0.00000000E+00  0.00000000E+00
  0.00000000E+00  0.00000000E+00  0.00000000E+00
  0.00000000E+00  0.00000000E+00  0.00000000E+00
  0.00000000E+00  0.00000000E+00  0.00000000E+00
  0.00000000E+00  0.00000000E+00  0.00000000E+00
  0.00000000E+00  0.00000000E+00  0.00000000E+00
  0.00000000E+00  0.00000000E+00  0.00000000E+00
  0.00000000E+00  0.00000000E+00  0.00000000E+00
  0.00000000E+00  0.00000000E+00  0.00000000E+00
  0.00000000E+00  0.00000000E+00  0.00000000E+00
  0.00000000E+00  0.00000000E+00  0.00000000E+00
  0.00000000E+00  0.00000000E+00  0.00000000E+00
  0.00000000E+00  0.00000000E+00  0.00000000E+00
  0.00000000E+00  0.00000000E+00  0.00000000E+00
  0.00000000E+00  0.00000000E+00  0.00000000E+00
  0.00000000E+00  0.00000000E+00  0.00000000E+00
