k-points for bandstructure gamma-X-M-gamma
 10
line
reciprocal
	0.0000	0.0000	0.0000  1  ! G
	0.0000  0.5000  0.0000  1  ! X

	0.0000  0.5000  0.0000  1  ! X
	0.5000  0.5000  0.0000  1  ! M

	0.5000  0.5000  0.0000  1  ! M
	0.0000	0.0000	0.0000  1  ! G
