 MnPc 2D MOF                            
   1.00000000000000     
    10.7065517036754105    0.0006112146549024    0.0000000000000000
     0.0006114183084624   10.7082598133221385    0.0000000000000000
     0.0000000000000000    0.0000000000000000   14.9512723427818752
   Mn   N    C    H 
     1     8    20     4
Direct
  0.9656030332096677  0.9654298545434870  0.5000000000000000
  0.7413425013891057  0.7412191441840648  0.5000000000000000
  0.1899251057678697  0.7411662440309428  0.5000000000000000
  0.1898653721815862  0.1896430354186904  0.5000000000000000
  0.7412822257642375  0.1896949016606015  0.5000000000000000
  0.9656335001686145  0.7820257437416913  0.5000000000000000
  0.9655718196681775  0.1488309366003833  0.5000000000000000
  0.7824042548295935  0.9654559505322098  0.5000000000000000
  0.1487981794166657  0.9654037252039487  0.5000000000000000
  0.3549141592106437  0.8988080706250727  0.5000000000000000
  0.5763146856226200  0.8988411874286086  0.5000000000000000
  0.8989388106609155  0.3547858315266268  0.5000000000000000
  0.8989825308176336  0.5760978818078755  0.5000000000000000
  0.3548908972497244  0.0320177200164764  0.5000000000000000
  0.5762919114626541  0.0320514784374879  0.5000000000000000
  0.0322220783739269  0.3547615111381006  0.5000000000000000
  0.0322664811695432  0.5760739101164916  0.5000000000000000
  0.7058639163552058  0.8597510833518598  0.5000000000000000
  0.2253746650889781  0.8597010911916954  0.5000000000000000
  0.8598995663944393  0.7056194128470210  0.5000000000000000
  0.8598397758001113  0.2252726626986501  0.5000000000000000
  0.7058309816908803  0.0711602090473775  0.5000000000000000
  0.2253415235345670  0.0711096473722392  0.5000000000000000
  0.0713674131360733  0.7055868455375176  0.5000000000000000
  0.0713067404817664  0.2252400596471560  0.5000000000000000
  0.4656322708613985  0.8297182331693449  0.5000000000000000
  0.8298237512911371  0.4654631467226409  0.5000000000000000
  0.4655727797053260  0.1011393460268195  0.5000000000000000
  0.1013795477186719  0.4653956490741677  0.5000000000000000
  0.4656647208716294  0.7278724247568817  0.5000000000000000
  0.7279538883846612  0.4655066431944448  0.5000000000000000
  0.4655376237102544  0.2029847391798612  0.5000000000000000
  0.2032488650931228  0.4653506788889530  0.5000000000000000
 
  0.00000000E+00  0.00000000E+00  0.00000000E+00
  0.00000000E+00  0.00000000E+00  0.00000000E+00
  0.00000000E+00  0.00000000E+00  0.00000000E+00
  0.00000000E+00  0.00000000E+00  0.00000000E+00
  0.00000000E+00  0.00000000E+00  0.00000000E+00
  0.00000000E+00  0.00000000E+00  0.00000000E+00
  0.00000000E+00  0.00000000E+00  0.00000000E+00
  0.00000000E+00  0.00000000E+00  0.00000000E+00
  0.00000000E+00  0.00000000E+00  0.00000000E+00
  0.00000000E+00  0.00000000E+00  0.00000000E+00
  0.00000000E+00  0.00000000E+00  0.00000000E+00
  0.00000000E+00  0.00000000E+00  0.00000000E+00
  0.00000000E+00  0.00000000E+00  0.00000000E+00
  0.00000000E+00  0.00000000E+00  0.00000000E+00
  0.00000000E+00  0.00000000E+00  0.00000000E+00
  0.00000000E+00  0.00000000E+00  0.00000000E+00
  0.00000000E+00  0.00000000E+00  0.00000000E+00
  0.00000000E+00  0.00000000E+00  0.00000000E+00
  0.00000000E+00  0.00000000E+00  0.00000000E+00
  0.00000000E+00  0.00000000E+00  0.00000000E+00
  0.00000000E+00  0.00000000E+00  0.00000000E+00
  0.00000000E+00  0.00000000E+00  0.00000000E+00
  0.00000000E+00  0.00000000E+00  0.00000000E+00
  0.00000000E+00  0.00000000E+00  0.00000000E+00
  0.00000000E+00  0.00000000E+00  0.00000000E+00
  0.00000000E+00  0.00000000E+00  0.00000000E+00
  0.00000000E+00  0.00000000E+00  0.00000000E+00
  0.00000000E+00  0.00000000E+00  0.00000000E+00
  0.00000000E+00  0.00000000E+00  0.00000000E+00
  0.00000000E+00  0.00000000E+00  0.00000000E+00
  0.00000000E+00  0.00000000E+00  0.00000000E+00
  0.00000000E+00  0.00000000E+00  0.00000000E+00
  0.00000000E+00  0.00000000E+00  0.00000000E+00
