kpoints-point only
 0
Monkhurst-Pack
 10 10 1
 0 0 0