                                        
   1.00000000000000     
    20.1946972898788779   -0.0000000000277519    0.0000000000000000
   -10.3923525937000001   18.0000771670999988    0.0000000000000000
     0.0000000000000000    0.0000000000000000   14.8401829923148743
   Ir   N    C    H 
     2     6    48    24
Direct
  0.6559683431137011  0.3265914082571024  0.5000000000000000
  0.3440316568862979  0.6734085917428978  0.5000000000000000
  0.3752744244536901  0.6006115017580640  0.5000000000000000
  0.3789276665158575  0.7776700072736882  0.5000000000000000
  0.2313456006469819  0.6142356288831973  0.5000000000000000
  0.6247255755463103  0.3993884982419429  0.5000000000000000
  0.6210723334841499  0.2223299927263194  0.5000000000000000
  0.7686543993530178  0.3857643711168027  0.5000000000000000
  0.4142770481982089  0.5729129288723899  0.5000000000000000
  0.4183613016537263  0.8433732917051567  0.5000000000000000
  0.1635439376829768  0.5800846589803021  0.5000000000000000
  0.5857229518017913  0.4270870711276032  0.5000000000000000
  0.5816386983462801  0.1566267082948437  0.5000000000000000
  0.8364560623170230  0.4199153410196979  0.5000000000000000
  0.4577438084915812  0.5378042367645146  0.5000000000000000
  0.4597505916667953  0.9209234275691560  0.5000000000000000
  0.0824765297606855  0.5404634921723287  0.5000000000000000
  0.5422561915084271  0.4621957632354857  0.5000000000000000
  0.5402494083332047  0.0790765724308441  0.5000000000000000
  0.9175234702393144  0.4595365078276787  0.5000000000000000
  0.5398403145221972  0.5804235629264302  0.5000000000000000
  0.4177008165539223  0.9598266485689352  0.5000000000000000
  0.0417123158534995  0.4604297852235354  0.5000000000000000
  0.4601596854777969  0.4195764370735697  0.5000000000000000
  0.5822991834460780  0.0401733514310650  0.5000000000000000
  0.9582876841465000  0.5395702147764654  0.5000000000000000
  0.4176694198154029  0.4580113729508853  0.5000000000000000
  0.5417803074319084  0.9604327626077543  0.5000000000000000
  0.0410515077833811  0.5802838826692773  0.5000000000000000
  0.5823305801846045  0.5419886270491221  0.5000000000000000
  0.4582196925680914  0.0395672373922466  0.5000000000000000
  0.9589484922166187  0.4197161173307305  0.5000000000000000
  0.6598402104433874  0.6988340546334972  0.5000000000000000
  0.2967858939614623  0.9592155503610658  0.5000000000000000
  0.0419019052971525  0.3426297978298050  0.5000000000000000
  0.3401597895566049  0.3011659453665031  0.5000000000000000
  0.7032141060385374  0.0407844496389349  0.5000000000000000
  0.9580980947028478  0.6573702021701876  0.5000000000000000
  0.2984456644490108  0.3392203489887256  0.5000000000000000
  0.6633334103132671  0.9621214716819630  0.5000000000000000
  0.0389717753339245  0.6972108279677337  0.5000000000000000
  0.7015543355509813  0.6607796510112756  0.5000000000000000
  0.3366665896867332  0.0378785283180303  0.5000000000000000
  0.9610282246660684  0.3027891720322594  0.5000000000000000
  0.3363846134303384  0.4157993697523378  0.5000000000000000
  0.5844481908161048  0.9229712373055284  0.5000000000000000
  0.0791174399231623  0.6595686821842611  0.5000000000000000
  0.6636153865696620  0.5842006302476692  0.5000000000000000
  0.4155518091839021  0.0770287626944787  0.5000000000000000
  0.9208825600768448  0.3404313178157381  0.5000000000000000
  0.5809192624179721  0.6595096177620697  0.5000000000000000
  0.3364531474365711  0.9211473716112616  0.5000000000000000
  0.0809238084059094  0.4192489786207392  0.5000000000000000
  0.4190807375820210  0.3404903822379296  0.5000000000000000
  0.6635468525634283  0.0788526283887460  0.5000000000000000
  0.9190761915940978  0.5807510213792537  0.5000000000000000
  0.5491914721050118  0.6893321147251831  0.5000000000000000
  0.3058904533329689  0.8604455939257443  0.5000000000000000
  0.1433581340446717  0.4492150395977140  0.5000000000000000
  0.4508085278949884  0.3106678852748168  0.5000000000000000
  0.6941095466670323  0.1395544060742556  0.5000000000000000
  0.8566418659553280  0.5507849604022851  0.5000000000000000
  0.3040181777916365  0.4450202788260879  0.5000000000000000
  0.5534909180620532  0.8622713984820760  0.5000000000000000
  0.1415208415705851  0.6912683882726215  0.5000000000000000
  0.6959818222083639  0.5549797211739126  0.5000000000000000
  0.4465090819379471  0.1377286015179097  0.5000000000000000
  0.8584791584294074  0.3087316117273781  0.5000000000000000
  0.2360692294491370  0.3077676481005511  0.5000000000000000
  0.6950574641474180  0.9323249400521290  0.5000000000000000
  0.0693109305462892  0.7579086294560965  0.5000000000000000
  0.7639307705508767  0.6922323518994554  0.5000000000000000
  0.3049425358525885  0.0676750599478782  0.5000000000000000
  0.9306890694537179  0.2420913705439180  0.5000000000000000
  0.6903469071235916  0.7594903441687859  0.5000000000000000
  0.2344111869263495  0.9285147398520451  0.5000000000000000
  0.0731287679775880  0.3122883922040102  0.5000000000000000
  0.3096530928764088  0.2405096558312142  0.5000000000000000
  0.7655888130736502  0.0714852601479553  0.5000000000000000
  0.9268712320224118  0.6877116077959896  0.5000000000000000
 
  0.00000000E+00  0.00000000E+00  0.00000000E+00
  0.00000000E+00  0.00000000E+00  0.00000000E+00
  0.00000000E+00  0.00000000E+00  0.00000000E+00
  0.00000000E+00  0.00000000E+00  0.00000000E+00
  0.00000000E+00  0.00000000E+00  0.00000000E+00
  0.00000000E+00  0.00000000E+00  0.00000000E+00
  0.00000000E+00  0.00000000E+00  0.00000000E+00
  0.00000000E+00  0.00000000E+00  0.00000000E+00
  0.00000000E+00  0.00000000E+00  0.00000000E+00
  0.00000000E+00  0.00000000E+00  0.00000000E+00
  0.00000000E+00  0.00000000E+00  0.00000000E+00
  0.00000000E+00  0.00000000E+00  0.00000000E+00
  0.00000000E+00  0.00000000E+00  0.00000000E+00
  0.00000000E+00  0.00000000E+00  0.00000000E+00
  0.00000000E+00  0.00000000E+00  0.00000000E+00
  0.00000000E+00  0.00000000E+00  0.00000000E+00
  0.00000000E+00  0.00000000E+00  0.00000000E+00
  0.00000000E+00  0.00000000E+00  0.00000000E+00
  0.00000000E+00  0.00000000E+00  0.00000000E+00
  0.00000000E+00  0.00000000E+00  0.00000000E+00
  0.00000000E+00  0.00000000E+00  0.00000000E+00
  0.00000000E+00  0.00000000E+00  0.00000000E+00
  0.00000000E+00  0.00000000E+00  0.00000000E+00
  0.00000000E+00  0.00000000E+00  0.00000000E+00
  0.00000000E+00  0.00000000E+00  0.00000000E+00
  0.00000000E+00  0.00000000E+00  0.00000000E+00
  0.00000000E+00  0.00000000E+00  0.00000000E+00
  0.00000000E+00  0.00000000E+00  0.00000000E+00
  0.00000000E+00  0.00000000E+00  0.00000000E+00
  0.00000000E+00  0.00000000E+00  0.00000000E+00
  0.00000000E+00  0.00000000E+00  0.00000000E+00
  0.00000000E+00  0.00000000E+00  0.00000000E+00
  0.00000000E+00  0.00000000E+00  0.00000000E+00
  0.00000000E+00  0.00000000E+00  0.00000000E+00
  0.00000000E+00  0.00000000E+00  0.00000000E+00
  0.00000000E+00  0.00000000E+00  0.00000000E+00
  0.00000000E+00  0.00000000E+00  0.00000000E+00
  0.00000000E+00  0.00000000E+00  0.00000000E+00
  0.00000000E+00  0.00000000E+00  0.00000000E+00
  0.00000000E+00  0.00000000E+00  0.00000000E+00
  0.00000000E+00  0.00000000E+00  0.00000000E+00
  0.00000000E+00  0.00000000E+00  0.00000000E+00
  0.00000000E+00  0.00000000E+00  0.00000000E+00
  0.00000000E+00  0.00000000E+00  0.00000000E+00
  0.00000000E+00  0.00000000E+00  0.00000000E+00
  0.00000000E+00  0.00000000E+00  0.00000000E+00
  0.00000000E+00  0.00000000E+00  0.00000000E+00
  0.00000000E+00  0.00000000E+00  0.00000000E+00
  0.00000000E+00  0.00000000E+00  0.00000000E+00
  0.00000000E+00  0.00000000E+00  0.00000000E+00
  0.00000000E+00  0.00000000E+00  0.00000000E+00
  0.00000000E+00  0.00000000E+00  0.00000000E+00
  0.00000000E+00  0.00000000E+00  0.00000000E+00
  0.00000000E+00  0.00000000E+00  0.00000000E+00
  0.00000000E+00  0.00000000E+00  0.00000000E+00
  0.00000000E+00  0.00000000E+00  0.00000000E+00
  0.00000000E+00  0.00000000E+00  0.00000000E+00
  0.00000000E+00  0.00000000E+00  0.00000000E+00
  0.00000000E+00  0.00000000E+00  0.00000000E+00
  0.00000000E+00  0.00000000E+00  0.00000000E+00
  0.00000000E+00  0.00000000E+00  0.00000000E+00
  0.00000000E+00  0.00000000E+00  0.00000000E+00
  0.00000000E+00  0.00000000E+00  0.00000000E+00
  0.00000000E+00  0.00000000E+00  0.00000000E+00
  0.00000000E+00  0.00000000E+00  0.00000000E+00
  0.00000000E+00  0.00000000E+00  0.00000000E+00
  0.00000000E+00  0.00000000E+00  0.00000000E+00
  0.00000000E+00  0.00000000E+00  0.00000000E+00
  0.00000000E+00  0.00000000E+00  0.00000000E+00
  0.00000000E+00  0.00000000E+00  0.00000000E+00
  0.00000000E+00  0.00000000E+00  0.00000000E+00
  0.00000000E+00  0.00000000E+00  0.00000000E+00
  0.00000000E+00  0.00000000E+00  0.00000000E+00
  0.00000000E+00  0.00000000E+00  0.00000000E+00
  0.00000000E+00  0.00000000E+00  0.00000000E+00
  0.00000000E+00  0.00000000E+00  0.00000000E+00
  0.00000000E+00  0.00000000E+00  0.00000000E+00
  0.00000000E+00  0.00000000E+00  0.00000000E+00
  0.00000000E+00  0.00000000E+00  0.00000000E+00
  0.00000000E+00  0.00000000E+00  0.00000000E+00
