k-points
 0
Monkhurst-Pack
 11 11 1
 0 0 0