Ta2S3                                   
   1.00000000000000     
     8.0760266634218389    0.0000000000000000    0.0000000000000000
    -4.0380133317109195    6.9940442521889628    0.0000000000000000
     0.0000000000000000   -0.0000000000000000   14.9896243845720392
   Ta   S 
     2     3
Direct
  0.3333333429999996  0.6666666870000029  0.5000000000000000
  0.6666666269999979  0.3333333129999971  0.5000000000000000
  0.5000000000000000  0.5000000000000000  0.5000000000000000
  0.5000000000000000 -0.0000000000000000  0.5000000000000000
  0.0000000000000000  0.5000000000000000  0.5000000000000000
 
  0.00000000E+00  0.00000000E+00  0.00000000E+00
  0.00000000E+00  0.00000000E+00  0.00000000E+00
  0.00000000E+00  0.00000000E+00  0.00000000E+00
  0.00000000E+00  0.00000000E+00  0.00000000E+00
  0.00000000E+00  0.00000000E+00  0.00000000E+00
