SYSTEM = Ta2S3
PREC = Accurate

ISTART = 0
ICHARG = 11
ISPIN = 2

MAGMOM = 0 0 2 0 0 2 9*0
SAXIS = 1 0 0

ENCUT = 500

LREAL = .FALSE.
LWAVE = .TRUE.
LCHARG = .TRUE.
LORBIT = 11
LSORBIT = .TRUE.

NELM = 200
NPAR = 8

LDAU = .TRUE.
LDAUTYPE = 2
LDAUL = 2 -1
LDAUU = 3.0 0.0 
LDAUJ = 0.0 0.0 
LMAMAXMIX = 4
LDAUPRINT = 2

ISMEAR = 0
SIGMA = 0.05



