 MnPc 2D MOF                            
   1.00000000000000     
    10.6899999999999995    0.0000000000000000    0.0000000000000000
     0.0000000000000000   10.6899999999999995    0.0000000000000000
     0.0000000000000000    0.0000000000000000   15.0000000000000000
   Mn   N    C    H 
     1     8    20     4
Direct
  0.9656016554690481  0.9654292852312938  0.5000000000000000
  0.7416013204456179  0.7413926884961136  0.5000000000000000
  0.1896811767043153  0.7413410664569681  0.5000000000000000
  0.1896056665170993  0.1894682284524144  0.5000000000000000
  0.7415261332389143  0.1895209971423613  0.5000000000000000
  0.9656347290012174  0.7808876763372039  0.5000000000000000
  0.9655730284590495  0.1499694551023121  0.5000000000000000
  0.7810287291311699  0.9654583482103080  0.5000000000000000
  0.1501724126415185  0.9654036398455994  0.5000000000000000
  0.3555741658823593  0.8988082668850951  0.5000000000000000
  0.5756922133166107  0.8988610508293572  0.5000000000000000
  0.8990058893588373  0.3554250269375393  0.5000000000000000
  0.8990898486138248  0.5755008653326695  0.5000000000000000
  0.3555084110956269  0.0320019411789013  0.5000000000000000
  0.5756262979591735  0.0320570142729335  0.5000000000000000
  0.0321217163415424  0.3553557387979521  0.5000000000000000
  0.0322075997942418  0.5754314833044699  0.5000000000000000
  0.7059612249572333  0.8604683975985858  0.5000000000000000
  0.2253875336099887  0.8604103205868671  0.5000000000000000
  0.8607353778078498  0.7057766546719757  0.5000000000000000
  0.8606499020375941  0.2251859179259617  0.5000000000000000
  0.7058149093378696  0.0704527215149618  0.5000000000000000
  0.2252414394777862  0.0703925456878374  0.5000000000000000
  0.0705588754827203  0.7056722610789798  0.5000000000000000
  0.0704720937296831  0.2250812408076183  0.5000000000000000
  0.4656755754445244  0.8291280733200262  0.5000000000000000
  0.8293275665443000  0.4655008263436740  0.5000000000000000
  0.4655232571378593  0.1017368562399811  0.5000000000000000
  0.1018864797101710  0.4653540985611705  0.5000000000000000
  0.4657082163748081  0.7271672607928321  0.5000000000000000
  0.7273668029931757  0.4655680205757849  0.5000000000000000
  0.4654775215715288  0.2036979371702840  0.5000000000000000
  0.2038478068941340  0.4652730940293263  0.5000000000000000
 
  0.00000000E+00  0.00000000E+00  0.00000000E+00
  0.00000000E+00  0.00000000E+00  0.00000000E+00
  0.00000000E+00  0.00000000E+00  0.00000000E+00
  0.00000000E+00  0.00000000E+00  0.00000000E+00
  0.00000000E+00  0.00000000E+00  0.00000000E+00
  0.00000000E+00  0.00000000E+00  0.00000000E+00
  0.00000000E+00  0.00000000E+00  0.00000000E+00
  0.00000000E+00  0.00000000E+00  0.00000000E+00
  0.00000000E+00  0.00000000E+00  0.00000000E+00
  0.00000000E+00  0.00000000E+00  0.00000000E+00
  0.00000000E+00  0.00000000E+00  0.00000000E+00
  0.00000000E+00  0.00000000E+00  0.00000000E+00
  0.00000000E+00  0.00000000E+00  0.00000000E+00
  0.00000000E+00  0.00000000E+00  0.00000000E+00
  0.00000000E+00  0.00000000E+00  0.00000000E+00
  0.00000000E+00  0.00000000E+00  0.00000000E+00
  0.00000000E+00  0.00000000E+00  0.00000000E+00
  0.00000000E+00  0.00000000E+00  0.00000000E+00
  0.00000000E+00  0.00000000E+00  0.00000000E+00
  0.00000000E+00  0.00000000E+00  0.00000000E+00
  0.00000000E+00  0.00000000E+00  0.00000000E+00
  0.00000000E+00  0.00000000E+00  0.00000000E+00
  0.00000000E+00  0.00000000E+00  0.00000000E+00
  0.00000000E+00  0.00000000E+00  0.00000000E+00
  0.00000000E+00  0.00000000E+00  0.00000000E+00
  0.00000000E+00  0.00000000E+00  0.00000000E+00
  0.00000000E+00  0.00000000E+00  0.00000000E+00
  0.00000000E+00  0.00000000E+00  0.00000000E+00
  0.00000000E+00  0.00000000E+00  0.00000000E+00
  0.00000000E+00  0.00000000E+00  0.00000000E+00
  0.00000000E+00  0.00000000E+00  0.00000000E+00
  0.00000000E+00  0.00000000E+00  0.00000000E+00
  0.00000000E+00  0.00000000E+00  0.00000000E+00
