k-points
 20
line
reciprocal

	0.50000	0.00000 0.00000		M
	0.00000	0.00000	0.00000		gamma
	
	0.00000	0.00000	0.00000		gamma
	0.66666	0.33333	0.00000		K

	0.66666	0.33333	0.00000		K
	0.50000	0.00000	0.00000		M
	