Ta2S3                                   
   1.00000000000000     
     7.8977803271054530    0.0000000000000000    0.0000000000000000
    -3.9488901635527265    6.8396783968058550    0.0000000000000000
     0.0000000000000000    0.0000000000000000   14.9904080450482571
   Ta   S 
   2    3
Direct
  0.3333333429999996  0.6666666870000029  0.5000000000000000
  0.6666666269999979  0.3333333129999971  0.5000000000000000
  0.5000000000000000  0.5000000000000000  0.5000000000000000
  0.5000000000000000  0.0000000000000000  0.5000000000000000
  0.0000000000000000  0.5000000000000000  0.5000000000000000
 
  0.00000000E+00  0.00000000E+00  0.00000000E+00
  0.00000000E+00  0.00000000E+00  0.00000000E+00
  0.00000000E+00  0.00000000E+00  0.00000000E+00
  0.00000000E+00  0.00000000E+00  0.00000000E+00
  0.00000000E+00  0.00000000E+00  0.00000000E+00
